# Solution for model r10_t9_m6_7 Batch Number: 1
# Finished Task: 9 / 9
# Makespan: 393.0, Total Distance: 123.0, Total Time: 5.0208
# R O S F Batch
0 0 -1 0.0 0.0 -1
1 1 10 0.0 0.0 -1
2 2 18 0.0 0.0 -1
3 3 -1 0.0 0.0 -1
4 4 11 0.0 0.0 -1
5 5 12 0.0 0.0 -1
6 6 -1 0.0 0.0 -1
7 7 17 0.0 0.0 -1
8 8 -1 0.0 0.0 -1
9 9 16 0.0 0.0 -1
10 1 -1 323.0 356.0 0
11 4 -1 289.0 323.0 0
12 5 -1 351.0 381.0 0
13 9 14 314.0 351.0 0
14 9 -1 367.0 393.0 0
15 7 -1 222.0 261.0 0
16 9 13 173.0 210.0 0
17 7 15 131.0 152.0 0
18 2 -1 261.0 289.0 0
